12 12 87 87 12 12 12 87 12 87 87 12 87 87 87 87 87 12 87 87 12 87 87 12 87 12 12 12 12 12 12 87 12 87 12 12 12 12 12 12 87 87 12 87 12 12 12 87 12 12 12 12 87 87 87 12 12 87 12 12 87 87 87 12 12 87 12 12 87 12 87 87 87 87 12 87 87 12 12 87 12 12 12 12 12 87 12 12 12 87 12 12 12 12 12 12 87 12 87 87 